
Gurobi 13.0.2 (win64) logging started Fri Jul 24 11:01:18 2026

Set parameter LogFile to value "E:\codes\ExactEBRP\results\gf_c0_mechanism_transfer_c5_round30\runs\stage3__tight_T_seed3101__c3_replica__300s\external\native_logs\R.0.0.1.0.0.1.0.0_lp.gurobi.log"
Gurobi Optimizer version 13.0.2 build v13.0.2rc1 (win64 - Windows 10.0 (19045.2))

CPU model: 12th Gen Intel(R) Core(TM) i7-12700KF, instruction set [SSE2|AVX|AVX2]
Thread count: 12 physical cores, 20 logical processors, using up to 1 threads

Non-default parameters:
TimeLimit  109.6255185
MIPGap  0
MIPGapAbs  0
LogToConsole  0
Threads  1

Optimize a model with 11939 rows, 3384 columns and 67420 nonzeros (Min)
Model fingerprint: 0x1d3cfbbd
Model has 21 linear objective coefficients
Coefficient statistics:
  Matrix range     [7e-03, 2e+04]
  Objective range  [7e-03, 1e+00]
  Bounds range     [2e-02, 3e+02]
  RHS range        [2e-02, 5e+04]

Presolve removed 1107 rows and 105 columns
Presolve time: 0.04s
Presolved: 10832 rows, 3453 columns, 62343 nonzeros

Iteration    Objective       Primal Inf.    Dual Inf.      Time
       0    1.5082416e-02   3.970925e+02   0.000000e+00      0s

Extra simplex iterations after uncrush: 11
    3640    1.6204427e-02   0.000000e+00   0.000000e+00      0s

Solved in 3640 iterations and 0.25 seconds (0.77 work units)
Optimal objective  1.620442661e-02

User-callback calls 3790, time in user-callback 0.00 sec
